CMD:
./solvers/bin/cadical --plain --no-reduce -t 1600 ./data/cnfs//pdtvistimeout0/pdtvistimeout0.15.cnf

c --- [ banner ] -------------------------------------------------------------
c 
c CaDiCaL SAT Solver
c Copyright (c) 2016-2024
c A. Biere, M. Fleury, N. Froleyks, K. Fazekas, F. Pollitt, T. Faller
c JKU Linz, University of Freiburg, TU Wien
c 
c Version 2.1.3 5296d3d2a9bf48c154ab2acb5e44625776d821bf
c g++ (Gentoo 12.3.1_p20230526 p2) 12.3.1 20230526 -Wall -Wextra -O3 -DNDEBUG
c Sat Aug 9 07:26:21 PDT 2025 Linux cedar2.int.cedar.computecanada.ca 5.14.0-362.24.2.el9_3.x86_64 x86_64
c 
c --- [ limit ] --------------------------------------------------------------
c 
c setting time limit to 1600 seconds real time (due to '-t 1600')
c 
c --- [ parsing input ] ------------------------------------------------------
c 
c reading DIMACS file from './data/cnfs//pdtvistimeout0/pdtvistimeout0.15.cnf'
c opening file to read './data/cnfs//pdtvistimeout0/pdtvistimeout0.15.cnf'
c found 'p cnf 18786 55762' header
c parsed 55762 clauses in 0.01 seconds process time
c 
c --- [ options ] ------------------------------------------------------------
c 
c   --compact=false                (different from default 'true')
c   --decompose=false              (different from default 'true')
c   --deduplicate=false            (different from default 'true')
c   --elim=false                   (different from default 'true')
c   --probe=false                  (different from default 'true')
c   --reduce=false                 (different from default 'true')
c   --subsume=false                (different from default 'true')
c   --ternary=false                (different from default 'true')
c   --transred=false               (different from default 'true')
c   --vivify=false                 (different from default 'true')
c 
c --- [ solving ] ------------------------------------------------------------
c 
c time measured in process time since initialization
c 
c  seconds  reductions  redundant  irredundant
c         MB    restarts       trail      variables
c          level   conflicts       glue        remaining
c 
c *  0.01 12  0 0   0    0    0  0% 0 53492 16973 90%
c {  0.01 12  0 0   0    0    0  0% 0 53492 16973 90%
c i  0.01 12  8 0   0    2    1 11% 0 53492 16965 90%
c i  0.01 12  8 0   0    5    3 11% 1 53492 16964 90%
c i  0.02 13 49 0  48  503  450 32% 3 53492 16962 90%
c i  0.02 13 50 0  49  507  453 32% 3 53492 16961 90%
c i  0.03 13 47 0  65  637  564 33% 3 53492 16952 90%
c i  0.03 13 45 0  72  712  633 33% 3 53492 16951 90%
c i  0.03 13 44 0  72  731  648 33% 3 53492 16950 90%
c i  0.04 13 44 0  72  741  656 33% 3 53492 16949 90%
c i  0.04 13 42 0  72  765  676 33% 3 53492 16948 90%
c i  0.04 13 42 0  72  767  677 33% 3 53492 16793 89%
c i  0.04 13 39 0  96  972  855 33% 3 53492 16792 89%
c i  0.04 13 39 0 100  987  867 33% 3 53492 16729 89%
c i  0.05 13 38 0 100 1000  879 33% 3 53492 16728 89%
c }  0.05 13 38 0 100 1000  879 33% 3 53492 16728 89%
c [  0.05 13  0 0 100 1000  879  0% 0 53492 16728 89%
c O  0.05 13 32 0 100 1002  881 32% 1 53492 16728 89%
c i  0.06 13 94 0 100 1178 1035 73% 7 53492 16667 89%
c ]  0.18 13 62 0 101 3001 2608 56% 12 53492 16667 89%
c 
c  seconds  reductions  redundant  irredundant
c         MB    restarts       trail      variables
c          level   conflicts       glue        remaining
c 
c {  0.18 13 38 0 101 3001 2608 33% 3 53492 16667 89%
c F  0.18 13 38 0 101 3003 2610 33% 3 53492 16667 89%
c i  0.18 13 38 0 101 3012 2618 33% 3 53492 16579 88%
c i  0.18 13 38 0 101 3017 2622 33% 3 53492 16578 88%
c i  0.20 14 35 0 186 3384 2957 33% 4 53492 16507 88%
c i  0.21 14 35 0 196 3469 3036 33% 4 53492 16506 88%
c i  0.21 14 36 0 203 3631 3171 35% 4 53492 16505 88%
c i  0.22 14 36 0 211 3733 3262 35% 4 53492 16504 88%
c i  0.23 14 35 0 239 3904 3421 36% 4 53492 16433 87%
c i  0.23 14 35 0 243 3915 3431 36% 4 53492 16432 87%
c i  0.23 14 35 0 244 3919 3434 36% 4 53492 16373 87%
c i  0.23 14 35 0 253 3950 3461 36% 4 53492 16367 87%
c i  0.24 14 34 0 273 4060 3560 36% 4 53492 16366 87%
c i  0.26 14 33 0 328 4394 3851 35% 4 53492 16365 87%
c i  0.26 14 32 0 343 4453 3906 35% 4 53492 16364 87%
c i  0.27 14 32 0 365 4587 4030 36% 4 53492 16311 87%
c i  0.28 14 33 0 365 4628 4068 36% 4 53492 16258 87%
c i  0.28 14 33 0 365 4802 4228 37% 4 53492 16257 87%
c i  0.28 14 32 0 365 4824 4246 37% 4 53492 16256 87%
c i  0.28 14 32 0 365 4837 4256 37% 4 53492 16255 87%
c 
c  seconds  reductions  redundant  irredundant
c         MB    restarts       trail      variables
c          level   conflicts       glue        remaining
c 
c i  0.28 14 32 0 365 4849 4267 37% 4 53492 16254 87%
c i  0.29 14 32 0 365 4896 4310 37% 4 53492 16253 87%
c i  0.30 14 32 0 382 5166 4560 38% 4 53492 16252 87%
c i  0.30 14 32 0 383 5204 4596 38% 4 53492 16251 87%
... skipped 65 lines ...
c i  5.49 21 27 0 3541 39003 34136 61% 14 45669 15822 84%
c 
c  seconds  reductions     redundant   irredundant
c         MB    restarts          trail       variables
c          level     conflicts        glue         remaining
c 
c i  5.97 22 25 0 3543 42303 36782 60% 14 45669 15821 84%
c W  6.47 28 24 0 3543 45017 38735 60% 13 45325 15821 84%
c i  7.91 28 21 0 3544 53076 43889 58% 13 45325 15820 84%
c O  8.25 28 20 0 3545 55018 45226 58% 12 45325 15820 84%
c i  8.26 28 20 0 3545 55173 45286 58% 12 45325 15690 84%
c ]  9.61 28 19 0 3551 63005 51043 57% 12 45325 15690 84%
c {  9.61 28 25 0 3551 63005 51043 54% 8 45325 15690 84%
c B 10.44 28 24 0 4245 66021 53795 54% 8 45325 15690 84%
c i 10.63 28 24 0 4369 66833 54460 54% 8 45325 15647 83%
c i 11.97 29 24 0 5341 72116 59278 55% 9 45325 15646 83%
c i 12.41 29 23 0 5645 73652 60696 55% 9 45325 15645 83%
c W 13.66 34 23 0 6429 78023 63684 55% 10 44517 15645 83%
c # 16.42 34 20 0 7543 91025 74504 54% 10 44517 15645 83%
c i 17.30 34 20 0 8050 94310 77312 54% 10 44517 15616 83%
c i 19.01 35 18 0 8100 103990 84138 54% 10 44517 15615 83%
c B 19.22 35 18 0 8116 105027 84900 54% 10 44517 15615 83%
c i 19.23 35 18 0 8116 105085 84944 54% 10 44517 15614 83%
c i 20.50 36 18 0 8727 110184 89004 53% 10 44517 15613 83%
c i 20.60 36 18 0 8727 110668 89217 54% 10 44517 15522 83%
c i 21.15 37 17 0 8883 112825 90736 53% 10 44517 15521 83%
c 
c  seconds  reductions      redundant   irredundant
c         MB    restarts           trail       variables
c          level     conflicts         glue         remaining
c 
c W 22.88 40 17 0 9640 120029 82881 53% 10 44012 15521 83%
c } 24.34 40 16 0 10267 127005 87529 53% 10 44012 15521 83%
c [ 24.34 40 19 0 10267 127005 87529 57% 12 44012 15521 83%
c B 26.26 40 18 0 10272 136030 92321 56% 12 44012 15521 83%
c i 26.72 40 17 0 10273 138207 93254 55% 12 44012 15223 81%
c i 27.09 40 17 0 10274 139869 93982 55% 12 44012 15218 81%
c i 27.20 40 17 0 10274 140454 94183 55% 12 44012 15183 81%
c i 27.22 40 17 0 10274 140542 94209 55% 12 44012 15151 81%
c i 27.26 40 17 0 10274 140749 94266 55% 12 44012 15128 81%
c i 27.27 40 17 0 10274 140829 94291 55% 12 44012 15117 80%
c i 27.28 40 17 0 10274 140873 94296 55% 12 44012 13552 72%
c i 27.28 40 17 0 10274 140874 94296 55% 12 44012 12874 69%
c i 27.28 40 17 0 10274 140875 94296 55% 12 44012 12079 64%
c ] 27.28 40 17 0 10274 140877 94296 55% 12 44012 11654 62%
c 0 27.28 40 17 0 10274 140877 94296 55% 12 44012 11654 62%
c 
c --- [ result ] -------------------------------------------------------------
c 
s UNSATISFIABLE
c 
c --- [ run-time profiling ] -------------------------------------------------
c 
c process time taken by individual solving procedures
c (percentage relative to process time for solving)
c 
c        27.27  100.00% search
c        17.60   64.53% unstable
c         9.46   34.68% stable
c         0.21    0.79% walk
c         0.01    0.03% parse
c         0.00    0.00% lucky
c         0.00    0.00% simplify
c   =================================
c        27.27   99.97% solve
c 
c last line shows process time for solving
c (percentage relative to total process time)
c 
c --- [ statistics ] ---------------------------------------------------------
c 
c chronological:             23218        16.48 %  of conflicts
c conflicts:                140877      5165.97    per second
c decisions:                345362     12664.45    per second
c fixed:                      7132        37.96 %  of all variables
c learned:                  138322        98.19 %  per conflict
c learned_lits:            8581179       100.00 %  learned literals
c minimized:                     0         0.00 %  learned literals
c shrunken:                3559196        41.48 %  learned literals
c minishrunken:            1768260        20.61 %  learned literals
c otfs:                        460         0.33 %  of conflict
c propagations:          294415639        10.80 M  per second
c rephased:                     16      8804.81    interval
c restarts:                  10274        13.71    interval
c stabilizing:                   4        39.66 %  of conflicts
c subsumed:                  29401        15.34 %  of all clauses
c strengthened:                454         0.24 %  of all clauses
c walked:                        4     35219.25    interval
c 
c seconds are measured in process time for solving
c 
c --- [ resources ] ----------------------------------------------------------
c 
c total process time since initialization:        27.28    seconds
c total real time since initialization:           27.38    seconds
c maximum resident set size of process:           48.32    MB
c 
c --- [ shutting down ] ------------------------------------------------------
c 
c exit 20
